proyfinal/src/viki/013/experimentInOfficeAgust.take6.output/c761512a-1f58-450d-9a82-e2a3570b30a2.als.dat
{'cnf.clauses': '118081',
 'cnf.totvars': '69608',
 'conflict literals': '7',
 'conflicts': '6',
 'decisions': '663',
 'memused.mb': '16.65',
 'outcome': 'UNSAT',
 'propagations': '20874',
 'restarts': '1',
 'solver.msecs': 29,
 'task.msecs': 81}
