proyfinal/src/viki/013/experimentInOfficeAgust.take6.output/c761512a-1f58-450d-9a82-e2a3570b30a2.als.out
Reading from standard input... Use '--help' for help.
============================[ Problem Statistics ]=============================
|                                                                             |
|  Number of variables:         69608                                         |
|  Number of clauses:          118081                                         |
|  Parse time:                   0.02 s                                       |
|                                                                             |
============================[ Search Statistics ]==============================
| Conflicts |          ORIGINAL         |          LEARNT          | Progress |
|           |    Vars  Clauses Literals |    Limit  Clauses Lit/Cl |          |
===============================================================================
===============================================================================
restarts              : 1
conflicts             : 6              (200 /sec)
decisions             : 663            (0.00 % random) (22149 /sec)
propagations          : 20874          (697357 /sec)
conflict literals     : 7              (0.00 % deleted)
Memory used           : 16.65 MB
CPU time              : 0.029933 s

UNSATISFIABLE
